/*********************************************
 * OPL 12.6.0.0 Data
 * Author: Adrian Rodriguez Bazaga, Pau Rodriguez Esmerats
 * Creation Date: 09/12/2017 at 00:42:58
 *********************************************/

maxConsec=8;
maxPresence=8;
maxHours=6;
minHours=1;
hours=16;
demand= [13 21 21 19 20 20 19 18 9 2 1 0 0 0 0 0  ];
nNurses=27;
